p cnf 63 94
-1 16 19 20 29 41 54 0 
-2 54 0 
-3 55 -56 -61 -62 -63 0 
-4 54 0 
-5 9 55 -56 -61 -62 -63 0 
-1 16 19 20 29 41 56 -55 -61 -62 -63 0 
-6 54 0 
-7 21 30 33 37 46 54 0 
-8 10 54 0 
-9 5 54 0 
-10 8 55 -56 -61 -62 -63 0 
-11 54 0 
-7 21 30 33 37 46 56 -55 -61 -62 -63 0 
-12 54 0 
-13 54 0 
-14 27 54 0 
-15 -16 1 19 20 29 41 54 0 
-17 54 0 
-8 10 56 -55 -61 -62 -63 0 
-9 5 56 -55 -61 -62 -63 0 
-18 50 -19 1 16 20 29 41 54 0 
-20 1 16 19 29 41 55 -56 -61 -62 -63 0 
-21 7 30 33 37 46 55 -56 -61 -62 -63 0 
-9 5 -22 34 -23 38 56 -55 -61 -62 -63 0 
-9 5 -22 34 -24 40 56 -55 -61 -62 -63 0 
-9 5 -23 38 56 -55 -61 -62 -63 0 
-8 10 -22 34 -24 40 -25 56 -55 -61 -62 -63 0 
-6 -19 1 16 20 29 41 54 0 
-13 -14 27 54 0 
-9 5 -22 34 -26 44 48 52 56 -55 -61 -62 -63 0 
-22 34 57 -59 -60 0 
-27 14 54 0 
-28 42 54 0 
-29 1 16 19 20 41 54 0 
-15 54 0 
-30 7 21 33 37 46 54 0 
-5 9 54 0 
-31 54 0 
-32 54 0 
-31 58 0 
-13 59 -57 -60 0 
-13 58 0 
-32 58 0 
-33 7 21 30 37 46 54 0 
-2 58 0 
-34 22 55 -56 -61 -62 -63 0 
-35 54 0 
-16 1 19 20 29 41 56 -55 -61 -62 -63 0 
-36 60 -57 -59 0 
-37 7 21 30 33 46 -38 23 56 -55 -61 -62 -63 0 
-8 10 -38 23 56 -55 -61 -62 -63 0 
-8 10 -22 34 -38 23 56 -55 -61 -62 -63 0 
-6 59 -57 -60 0 
-6 58 0 
-2 59 -57 -60 0 
-22 34 -39 -38 23 61 -55 -56 -62 -63 0 
-22 34 -39 -38 23 62 -55 -56 -61 -63 0 
-36 62 -55 -56 -61 -63 0 
-22 34 -39 -40 24 -25 63 -55 -56 -61 -62 0 
-10 8 54 0 
-41 1 16 19 20 29 54 0 
-42 28 54 0 
-37 7 21 30 33 46 56 -55 -61 -62 -63 0 
-14 27 55 -56 -61 -62 -63 0 
-13 -18 50 55 -56 -61 -62 -63 0 
-43 58 0 
-37 7 21 30 33 46 -44 26 48 52 -45 -34 22 56 -55 -61 -62 -63 0 
-41 1 16 19 20 29 -34 22 55 -56 -61 -62 -63 0 
-46 7 21 30 33 37 54 0 
-37 7 21 30 33 46 54 0 
-19 1 16 20 29 41 54 0 
-6 55 -56 -61 -62 -63 0 
-35 58 0 
-18 50 54 0 
-33 7 21 30 37 46 55 -56 -61 -62 -63 0 
-4 59 -57 -60 0 
-47 56 -55 -61 -62 -63 0 
-9 5 -22 34 -48 26 44 52 -26 48 56 -55 -61 -62 -63 0 
-8 10 -48 26 44 52 -26 48 -34 22 56 -55 -61 -62 -63 0 
-9 5 -48 26 44 52 -26 48 56 -55 -61 -62 -63 0 
-8 10 -22 34 -49 56 -55 -61 -62 -63 0 
-9 5 -22 34 -49 56 -55 -61 -62 -63 0 
-8 10 -22 34 -26 44 48 52 -40 24 56 -55 -61 -62 -63 0 
-8 10 -26 44 48 52 56 -55 -61 -62 -63 0 
-15 -41 1 16 19 20 29 54 0 
-43 54 0 
-50 18 54 0 
-33 7 21 30 37 46 -34 22 55 -56 -61 -62 -63 0 
-2 55 -56 -61 -62 -63 0 
-33 7 21 30 37 46 58 0 
-8 10 -22 34 -40 24 56 -55 -61 -62 -63 0 
-9 5 -51 56 -55 -61 -62 -63 0 
-8 10 -51 56 -55 -61 -62 -63 0 
-22 34 -52 26 44 48 -53 -39 61 -55 -56 -62 -63 0 
